18
3 0 22 0
3 0 3 0
3 0 4 0
3 0 6 0
3 0 7 0
3 0 5 0
3 0 12 0
3 0 15 0
3 0 21 0
3 0 25 0
3 0 8 0
3 0 30 0
9 0 9 27 11 26 28 31 18 0
3 0 29 0
5 0 16 10 14 0
5 0 1 13 33 0
5 0 2 19 20 0
9 0 17 23 24 35 32 34 36 0
